
--- Job RCPSP2.gms Start 03/14/15 18:47:32 24.3.3 r48116 WIN-VS8 x86 32bit/MS Windows
GAMS 24.3.3   Copyright (C) 1987-2014 GAMS Development. All rights reserved
Licensee: Kurslizenz                                     S140303/0001AW-GEN
          Leibniz University Hannover, Lehrstuhl fuer ProduktionswirtDC6657
          License for teaching and research at degree granting institutions
--- Starting compilation
--- RCPSP2.gms(40) 2 Mb
--- .RCPSP2_Input.inc(76) 3 Mb
--- RCPSP2.gms(160) 3 Mb
--- Starting execution: elapsed 0:00:00.004
--- RCPSP2.gms(198) 4 Mb
--- Generating MIP model RCPSP2
--- RCPSP2.gms(200) 4 Mb
---   109 rows  107 columns  331 non-zeroes
---   26 discrete-columns
--- Executing CPLEX: elapsed 0:00:00.028

IBM ILOG CPLEX   24.3.3 r48116 Released Sep 19, 2014 VS8 x86 32bit/MS Windows 
Cplex 12.6.0.1

Reading data...
Starting Cplex...
Space for names approximately 0.01 Mb
Use option 'names no' to turn use of names off
Tried aggregator 1 time.
MIP Presolve eliminated 108 rows and 105 columns.
MIP Presolve modified 40 coefficients.
Reduced MIP has 1 rows, 2 columns, and 2 nonzeros.
Reduced MIP has 2 binaries, 0 generals, 0 SOSs, and 0 indicators.
Presolve time = 0.00 sec. (0.10 ticks)
Found incumbent of value 1320.000000 after 0.00 sec. (0.12 ticks)
Probing time = 0.00 sec. (0.00 ticks)
Tried aggregator 1 time.
MIP Presolve eliminated 1 rows and 2 columns.
All rows and columns eliminated.
Presolve time = 0.00 sec. (0.00 ticks)

Root node processing (before b&c):
  Real time             =    0.00 sec. (0.13 ticks)
Sequential b&c:
  Real time             =    0.00 sec. (0.00 ticks)
                          ------------
Total (root+branch&cut) =    0.00 sec. (0.13 ticks)
MIP status(101): integer optimal solution
Cplex Time: 0.00sec (det. 0.13 ticks)
Fixing integer variables, and solving final LP...
Tried aggregator 1 time.
LP Presolve eliminated 109 rows and 107 columns.
All rows and columns eliminated.
Presolve time = 0.00 sec. (0.04 ticks)
Fixed MIP status(1): optimal
Cplex Time: 0.00sec (det. 0.07 ticks)

Proven optimal solution.

MIP Solution:         1302.000000    (0 iterations, 0 nodes)
Final Solve:          1302.000000    (0 iterations)

Best possible:        1302.000000
Absolute gap:            0.000000
Relative gap:            0.000000

--- Restarting execution
--- RCPSP2.gms(200) 2 Mb
--- Reading solution for model RCPSP2
--- Executing after solve: elapsed 0:00:00.213
--- RCPSP2.gms(236) 3 Mb
--- Putfile outputfile1 C:\Sites\as-rcpsp\RCPSP2_solution_kosten.txt
--- Putfile outputfile2 C:\Sites\as-rcpsp\RCPSP2_solution_zeit.txt
--- Putfile outputfile3 C:\Sites\as-rcpsp\RCPSP2_solution_zw.txt
*** Status: Normal completion
--- Job RCPSP2.gms Stop 03/14/15 18:47:32 elapsed 0:00:00.215
